p cnf 198 788
c p weight 8 -1 0
c p weight -8 1 0
c p weight 10 6.12323399573676603586882014729198302312846062338790031898128063403419218957424163818359375E-17 0
c p weight -10 1 0
c p weight 11 1 0
c p weight -11 1 0
c p weight 12 -1 0
c p weight -12 1 0
c p weight 14 -1 0
c p weight -14 1 0
c p weight 16 -1 0
c p weight -16 1 0
c p weight 18 6.12323399573676603586882014729198302312846062338790031898128063403419218957424163818359375E-17 0
c p weight -18 1 0
c p weight 19 1 0
c p weight -19 1 0
c p weight 20 -1 0
c p weight -20 1 0
c p weight 22 -1 0
c p weight -22 1 0
c p weight 25 -1 0
c p weight -25 1 0
c p weight 27 0.9560013178130890576511546896654181182384490966796875 0
c p weight -27 1 0
c p weight 28 0.29336237035386292237859606757410801947116851806640625 0
c p weight -28 1 0
c p weight 29 -1 0
c p weight -29 1 0
c p weight 32 -1 0
c p weight -32 1 0
c p weight 34 -1 0
c p weight -34 1 0
c p weight 36 6.12323399573676603586882014729198302312846062338790031898128063403419218957424163818359375E-17 0
c p weight -36 1 0
c p weight 37 1 0
c p weight -37 1 0
c p weight 38 -1 0
c p weight -38 1 0
c p weight 40 -1 0
c p weight -40 1 0
c p weight 43 -1 0
c p weight -43 1 0
c p weight 45 0.9560013178130890576511546896654181182384490966796875 0
c p weight -45 1 0
c p weight 46 0.29336237035386292237859606757410801947116851806640625 0
c p weight -46 1 0
c p weight 47 -1 0
c p weight -47 1 0
c p weight 50 -1 0
c p weight -50 1 0
c p weight 52 -1 0
c p weight -52 1 0
c p weight 54 6.12323399573676603586882014729198302312846062338790031898128063403419218957424163818359375E-17 0
c p weight -54 1 0
c p weight 55 1 0
c p weight -55 1 0
c p weight 56 -1 0
c p weight -56 1 0
c p weight 58 0.1457901654242139966033420250823837704956531524658203125 0
c p weight -58 1 0
c p weight 59 0.98931553493593760162383432543720118701457977294921875 0
c p weight -59 1 0
c p weight 60 -1 0
c p weight -60 1 0
c p weight 62 6.12323399573676603586882014729198302312846062338790031898128063403419218957424163818359375E-17 0
c p weight -62 1 0
c p weight 63 1 0
c p weight -63 1 0
c p weight 64 -1 0
c p weight -64 1 0
c p weight 66 3.0616169978683831411939265144290861071468186371292985459291458028019405901432037353515625E-16 0
c p weight -66 1 0
c p weight 67 1 0
c p weight -67 1 0
c p weight 68 -1 0
c p weight -68 1 0
c p weight 71 -1 0
c p weight -71 1 0
c p weight 73 0.9560013178130890576511546896654181182384490966796875 0
c p weight -73 1 0
c p weight 74 0.29336237035386292237859606757410801947116851806640625 0
c p weight -74 1 0
c p weight 75 -1 0
c p weight -75 1 0
c p weight 78 -1 0
c p weight -78 1 0
c p weight 80 -1 0
c p weight -80 1 0
c p weight 82 6.12323399573676603586882014729198302312846062338790031898128063403419218957424163818359375E-17 0
c p weight -82 1 0
c p weight 83 1 0
c p weight -83 1 0
c p weight 84 -1 0
c p weight -84 1 0
c p weight 86 0.1457901654242139966033420250823837704956531524658203125 0
c p weight -86 1 0
c p weight 87 0.98931553493593760162383432543720118701457977294921875 0
c p weight -87 1 0
c p weight 88 -1 0
c p weight -88 1 0
c p weight 90 6.12323399573676603586882014729198302312846062338790031898128063403419218957424163818359375E-17 0
c p weight -90 1 0
c p weight 91 1 0
c p weight -91 1 0
c p weight 92 -1 0
c p weight -92 1 0
c p weight 94 3.0616169978683831411939265144290861071468186371292985459291458028019405901432037353515625E-16 0
c p weight -94 1 0
c p weight 95 1 0
c p weight -95 1 0
c p weight 96 -1 0
c p weight -96 1 0
c p weight 99 -1 0
c p weight -99 1 0
c p weight 101 0.7022530887263782606311224299133755266666412353515625 0
c p weight -101 1 0
c p weight 102 0.7119273834979671367051423658267594873905181884765625 0
c p weight -102 1 0
c p weight 103 -1 0
c p weight -103 1 0
c p weight 106 -1 0
c p weight -106 1 0
c p weight 108 -1 0
c p weight -108 1 0
c p weight 110 6.12323399573676603586882014729198302312846062338790031898128063403419218957424163818359375E-17 0
c p weight -110 1 0
c p weight 111 1 0
c p weight -111 1 0
c p weight 112 -1 0
c p weight -112 1 0
c p weight 114 0.1457901654242139966033420250823837704956531524658203125 0
c p weight -114 1 0
c p weight 115 0.98931553493593760162383432543720118701457977294921875 0
c p weight -115 1 0
c p weight 116 -1 0
c p weight -116 1 0
c p weight 118 6.12323399573676603586882014729198302312846062338790031898128063403419218957424163818359375E-17 0
c p weight -118 1 0
c p weight 119 1 0
c p weight -119 1 0
c p weight 120 -1 0
c p weight -120 1 0
c p weight 122 3.0616169978683831411939265144290861071468186371292985459291458028019405901432037353515625E-16 0
c p weight -122 1 0
c p weight 123 1 0
c p weight -123 1 0
c p weight 124 -1 0
c p weight -124 1 0
c p weight 127 -1 0
c p weight -127 1 0
c p weight 129 0.7022530887263782606311224299133755266666412353515625 0
c p weight -129 1 0
c p weight 130 0.7119273834979671367051423658267594873905181884765625 0
c p weight -130 1 0
c p weight 131 -1 0
c p weight -131 1 0
c p weight 134 -1 0
c p weight -134 1 0
c p weight 136 -1 0
c p weight -136 1 0
c p weight 138 6.12323399573676603586882014729198302312846062338790031898128063403419218957424163818359375E-17 0
c p weight -138 1 0
c p weight 139 1 0
c p weight -139 1 0
c p weight 140 -1 0
c p weight -140 1 0
c p weight 142 0.70816994252742959670143818584620021283626556396484375 0
c p weight -142 1 0
c p weight 143 -0.706042018934211146330426345230080187320709228515625 0
c p weight -143 1 0
c p weight 144 -1 0
c p weight -144 1 0
c p weight 146 6.12323399573676603586882014729198302312846062338790031898128063403419218957424163818359375E-17 0
c p weight -146 1 0
c p weight 147 1 0
c p weight -147 1 0
c p weight 148 -1 0
c p weight -148 1 0
c p weight 150 3.0616169978683831411939265144290861071468186371292985459291458028019405901432037353515625E-16 0
c p weight -150 1 0
c p weight 151 1 0
c p weight -151 1 0
c p weight 152 -1 0
c p weight -152 1 0
c p weight 155 -1 0
c p weight -155 1 0
c p weight 157 0.7022530887263782606311224299133755266666412353515625 0
c p weight -157 1 0
c p weight 158 0.7119273834979671367051423658267594873905181884765625 0
c p weight -158 1 0
c p weight 159 -1 0
c p weight -159 1 0
c p weight 162 -1 0
c p weight -162 1 0
c p weight 164 -1 0
c p weight -164 1 0
c p weight 166 6.12323399573676603586882014729198302312846062338790031898128063403419218957424163818359375E-17 0
c p weight -166 1 0
c p weight 167 1 0
c p weight -167 1 0
c p weight 168 -1 0
c p weight -168 1 0
c p weight 170 0.70816994252742959670143818584620021283626556396484375 0
c p weight -170 1 0
c p weight 171 -0.706042018934211146330426345230080187320709228515625 0
c p weight -171 1 0
c p weight 172 -1 0
c p weight -172 1 0
c p weight 174 6.12323399573676603586882014729198302312846062338790031898128063403419218957424163818359375E-17 0
c p weight -174 1 0
c p weight 175 1 0
c p weight -175 1 0
c p weight 176 -1 0
c p weight -176 1 0
c p weight 178 3.0616169978683831411939265144290861071468186371292985459291458028019405901432037353515625E-16 0
c p weight -178 1 0
c p weight 179 1 0
c p weight -179 1 0
c p weight 180 -1 0
c p weight -180 1 0
c p weight 182 -1 0
c p weight -182 1 0
c p weight 184 6.12323399573676603586882014729198302312846062338790031898128063403419218957424163818359375E-17 0
c p weight -184 1 0
c p weight 185 1 0
c p weight -185 1 0
c p weight 186 -1 0
c p weight -186 1 0
c p weight 188 0.70816994252742959670143818584620021283626556396484375 0
c p weight -188 1 0
c p weight 189 -0.706042018934211146330426345230080187320709228515625 0
c p weight -189 1 0
c p weight 190 -1 0
c p weight -190 1 0
c p weight 192 6.12323399573676603586882014729198302312846062338790031898128063403419218957424163818359375E-17 0
c p weight -192 1 0
c p weight 193 1 0
c p weight -193 1 0
c p weight 194 -1 0
c p weight -194 1 0
c p weight 196 3.0616169978683831411939265144290861071468186371292985459291458028019405901432037353515625E-16 0
c p weight -196 1 0
c p weight 197 1 0
c p weight -197 1 0
c p weight 198 -1 0
c p weight -198 1 0
-5 0
-3 0
-1 0
7 1 -2 0
7 -1 2 0
-7 1 2 0
-7 -1 -2 0
-8 1 0
-8 2 0
8 -1 -2 0
9 -1 7 0
-9 1 7 0
-10 7 0
9 -10 -1 0
-9 -10 1 0
9 10 1 -7 0
-9 10 -1 -7 0
-11 7 0
9 -11 1 0
-9 -11 -1 0
9 11 -1 -7 0
-9 11 1 -7 0
-12 9 0
-12 7 0
-12 -1 0
12 -9 1 -7 0
13 9 -7 0
13 -9 7 0
-13 9 7 0
-13 -9 -7 0
-14 9 0
-14 7 0
14 -9 -7 0
15 3 -4 0
15 -3 4 0
-15 3 4 0
-15 -3 -4 0
-16 3 0
-16 4 0
16 -3 -4 0
17 -3 15 0
-17 3 15 0
-18 15 0
17 -18 -3 0
-17 -18 3 0
17 18 3 -15 0
-17 18 -3 -15 0
-19 15 0
17 -19 3 0
-17 -19 -3 0
17 19 -3 -15 0
-17 19 3 -15 0
-20 17 0
-20 15 0
-20 -3 0
20 -17 3 -15 0
21 17 -15 0
21 -17 15 0
-21 17 15 0
-21 -17 -15 0
-22 17 0
-22 15 0
22 -17 -15 0
23 9 -17 0
23 -9 17 0
-23 9 17 0
-23 -9 -17 0
24 13 -21 0
24 -13 21 0
-24 13 21 0
-24 -13 -21 0
-25 9 0
-25 21 0
-25 17 -13 0
-25 -17 13 0
25 -9 17 13 -21 0
25 -9 -17 -13 -21 0
26 23 -21 0
-26 23 21 0
-27 23 0
26 -27 -21 0
-26 -27 21 0
26 27 -23 21 0
-26 27 -23 -21 0
-28 23 0
26 -28 21 0
-26 -28 -21 0
26 28 -23 -21 0
-26 28 -23 21 0
-29 23 0
-29 21 0
-29 -26 0
29 26 -23 -21 0
30 9 -23 0
30 -9 23 0
-30 9 23 0
-30 -9 -23 0
31 24 -26 0
31 -24 26 0
-31 24 26 0
-31 -24 -26 0
-32 9 0
-32 26 0
-32 23 -24 0
-32 -23 24 0
32 -9 23 24 -26 0
32 -9 -23 -24 -26 0
33 5 -6 0
33 -5 6 0
-33 5 6 0
-33 -5 -6 0
-34 5 0
-34 6 0
34 -5 -6 0
35 -5 33 0
-35 5 33 0
-36 33 0
35 -36 -5 0
-35 -36 5 0
35 36 5 -33 0
-35 36 -5 -33 0
-37 33 0
35 -37 5 0
-35 -37 -5 0
35 37 -5 -33 0
-35 37 5 -33 0
-38 35 0
-38 33 0
-38 -5 0
38 -35 5 -33 0
39 35 -33 0
39 -35 33 0
-39 35 33 0
-39 -35 -33 0
-40 35 0
-40 33 0
40 -35 -33 0
41 9 -35 0
41 -9 35 0
-41 9 35 0
-41 -9 -35 0
42 31 -39 0
42 -31 39 0
-42 31 39 0
-42 -31 -39 0
-43 9 0
-43 39 0
-43 35 -31 0
-43 -35 31 0
43 -9 35 31 -39 0
43 -9 -35 -31 -39 0
44 41 -39 0
-44 41 39 0
-45 41 0
44 -45 -39 0
-44 -45 39 0
44 45 -41 39 0
-44 45 -41 -39 0
-46 41 0
44 -46 39 0
-44 -46 -39 0
44 46 -41 -39 0
-44 46 -41 39 0
-47 41 0
-47 39 0
-47 -44 0
47 44 -41 -39 0
48 9 -41 0
48 -9 41 0
-48 9 41 0
-48 -9 -41 0
49 42 -44 0
49 -42 44 0
-49 42 44 0
-49 -42 -44 0
-50 9 0
-50 44 0
-50 41 -42 0
-50 -41 42 0
50 -9 41 42 -44 0
50 -9 -41 -42 -44 0
51 9 -49 0
51 -9 49 0
-51 9 49 0
-51 -9 -49 0
-52 9 0
-52 49 0
52 -9 -49 0
53 -9 51 0
-53 9 51 0
-54 51 0
53 -54 -9 0
-53 -54 9 0
53 54 9 -51 0
-53 54 -9 -51 0
-55 51 0
53 -55 9 0
-53 -55 -9 0
53 55 -9 -51 0
-53 55 9 -51 0
-56 53 0
-56 51 0
-56 -9 0
56 -53 9 -51 0
57 53 -51 0
-57 53 51 0
-58 53 0
57 -58 -51 0
-57 -58 51 0
57 58 -53 51 0
-57 58 -53 -51 0
-59 53 0
57 -59 51 0
-57 -59 -51 0
57 59 -53 -51 0
-57 59 -53 51 0
-60 53 0
-60 51 0
-60 -57 0
60 57 -53 -51 0
61 -53 57 0
-61 53 57 0
-62 57 0
61 -62 -53 0
-61 -62 53 0
61 62 53 -57 0
-61 62 -53 -57 0
-63 57 0
61 -63 53 0
-61 -63 -53 0
61 63 -53 -57 0
-61 63 53 -57 0
-64 61 0
-64 57 0
-64 -53 0
64 -61 53 -57 0
65 61 -57 0
-65 61 57 0
-66 61 0
65 -66 -57 0
-65 -66 57 0
65 66 -61 57 0
-65 66 -61 -57 0
-67 61 0
65 -67 57 0
-65 -67 -57 0
65 67 -61 -57 0
-65 67 -61 57 0
-68 61 0
-68 57 0
-68 -65 0
68 65 -61 -57 0
69 30 -48 0
69 -30 48 0
-69 30 48 0
-69 -30 -48 0
70 26 -44 0
70 -26 44 0
-70 26 44 0
-70 -26 -44 0
-71 30 0
-71 44 0
-71 48 -26 0
-71 -48 26 0
71 -30 48 26 -44 0
71 -30 -48 -26 -44 0
72 69 -44 0
-72 69 44 0
-73 69 0
72 -73 -44 0
-72 -73 44 0
72 73 -69 44 0
-72 73 -69 -44 0
-74 69 0
72 -74 44 0
-72 -74 -44 0
72 74 -69 -44 0
-72 74 -69 44 0
-75 69 0
-75 44 0
-75 -72 0
75 72 -69 -44 0
76 30 -69 0
76 -30 69 0
-76 30 69 0
-76 -30 -69 0
77 70 -72 0
77 -70 72 0
-77 70 72 0
-77 -70 -72 0
-78 30 0
-78 72 0
-78 69 -70 0
-78 -69 70 0
78 -30 69 70 -72 0
78 -30 -69 -70 -72 0
79 30 -77 0
79 -30 77 0
-79 30 77 0
-79 -30 -77 0
-80 30 0
-80 77 0
80 -30 -77 0
81 -30 79 0
-81 30 79 0
-82 79 0
81 -82 -30 0
-81 -82 30 0
81 82 30 -79 0
-81 82 -30 -79 0
-83 79 0
81 -83 30 0
-81 -83 -30 0
81 83 -30 -79 0
-81 83 30 -79 0
-84 81 0
-84 79 0
-84 -30 0
84 -81 30 -79 0
85 81 -79 0
-85 81 79 0
-86 81 0
85 -86 -79 0
-85 -86 79 0
85 86 -81 79 0
-85 86 -81 -79 0
-87 81 0
85 -87 79 0
-85 -87 -79 0
85 87 -81 -79 0
-85 87 -81 79 0
-88 81 0
-88 79 0
-88 -85 0
88 85 -81 -79 0
89 -81 85 0
-89 81 85 0
-90 85 0
89 -90 -81 0
-89 -90 81 0
89 90 81 -85 0
-89 90 -81 -85 0
-91 85 0
89 -91 81 0
-89 -91 -81 0
89 91 -81 -85 0
-89 91 81 -85 0
-92 89 0
-92 85 0
-92 -81 0
92 -89 81 -85 0
93 89 -85 0
-93 89 85 0
-94 89 0
93 -94 -85 0
-93 -94 85 0
93 94 -89 85 0
-93 94 -89 -85 0
-95 89 0
93 -95 85 0
-93 -95 -85 0
93 95 -89 -85 0
-93 95 -89 85 0
-96 89 0
-96 85 0
-96 -93 0
96 93 -89 -85 0
97 61 -89 0
97 -61 89 0
-97 61 89 0
-97 -61 -89 0
98 65 -93 0
98 -65 93 0
-98 65 93 0
-98 -65 -93 0
-99 61 0
-99 93 0
-99 89 -65 0
-99 -89 65 0
99 -61 89 65 -93 0
99 -61 -89 -65 -93 0
100 97 -93 0
-100 97 93 0
-101 97 0
100 -101 -93 0
-100 -101 93 0
100 101 -97 93 0
-100 101 -97 -93 0
-102 97 0
100 -102 93 0
-100 -102 -93 0
100 102 -97 -93 0
-100 102 -97 93 0
-103 97 0
-103 93 0
-103 -100 0
103 100 -97 -93 0
104 61 -97 0
104 -61 97 0
-104 61 97 0
-104 -61 -97 0
105 98 -100 0
105 -98 100 0
-105 98 100 0
-105 -98 -100 0
-106 61 0
-106 100 0
-106 97 -98 0
-106 -97 98 0
106 -61 97 98 -100 0
106 -61 -97 -98 -100 0
107 76 -72 0
107 -76 72 0
-107 76 72 0
-107 -76 -72 0
-108 76 0
-108 72 0
108 -76 -72 0
109 -76 107 0
-109 76 107 0
-110 107 0
109 -110 -76 0
-109 -110 76 0
109 110 76 -107 0
-109 110 -76 -107 0
-111 107 0
109 -111 76 0
-109 -111 -76 0
109 111 -76 -107 0
-109 111 76 -107 0
-112 109 0
-112 107 0
-112 -76 0
112 -109 76 -107 0
113 109 -107 0
-113 109 107 0
-114 109 0
113 -114 -107 0
-113 -114 107 0
113 114 -109 107 0
-113 114 -109 -107 0
-115 109 0
113 -115 107 0
-113 -115 -107 0
113 115 -109 -107 0
-113 115 -109 107 0
-116 109 0
-116 107 0
-116 -113 0
116 113 -109 -107 0
117 -109 113 0
-117 109 113 0
-118 113 0
117 -118 -109 0
-117 -118 109 0
117 118 109 -113 0
-117 118 -109 -113 0
-119 113 0
117 -119 109 0
-117 -119 -109 0
117 119 -109 -113 0
-117 119 109 -113 0
-120 117 0
-120 113 0
-120 -109 0
120 -117 109 -113 0
121 117 -113 0
-121 117 113 0
-122 117 0
121 -122 -113 0
-121 -122 113 0
121 122 -117 113 0
-121 122 -117 -113 0
-123 117 0
121 -123 113 0
-121 -123 -113 0
121 123 -117 -113 0
-121 123 -117 113 0
-124 117 0
-124 113 0
-124 -121 0
124 121 -117 -113 0
125 61 -117 0
125 -61 117 0
-125 61 117 0
-125 -61 -117 0
126 105 -121 0
126 -105 121 0
-126 105 121 0
-126 -105 -121 0
-127 61 0
-127 121 0
-127 117 -105 0
-127 -117 105 0
127 -61 117 105 -121 0
127 -61 -117 -105 -121 0
128 125 -121 0
-128 125 121 0
-129 125 0
128 -129 -121 0
-128 -129 121 0
128 129 -125 121 0
-128 129 -125 -121 0
-130 125 0
128 -130 121 0
-128 -130 -121 0
128 130 -125 -121 0
-128 130 -125 121 0
-131 125 0
-131 121 0
-131 -128 0
131 128 -125 -121 0
132 61 -125 0
132 -61 125 0
-132 61 125 0
-132 -61 -125 0
133 126 -128 0
133 -126 128 0
-133 126 128 0
-133 -126 -128 0
-134 61 0
-134 128 0
-134 125 -126 0
-134 -125 126 0
134 -61 125 126 -128 0
134 -61 -125 -126 -128 0
135 61 -133 0
135 -61 133 0
-135 61 133 0
-135 -61 -133 0
-136 61 0
-136 133 0
136 -61 -133 0
137 -61 135 0
-137 61 135 0
-138 135 0
137 -138 -61 0
-137 -138 61 0
137 138 61 -135 0
-137 138 -61 -135 0
-139 135 0
137 -139 61 0
-137 -139 -61 0
137 139 -61 -135 0
-137 139 61 -135 0
-140 137 0
-140 135 0
-140 -61 0
140 -137 61 -135 0
141 137 -135 0
-141 137 135 0
-142 137 0
141 -142 -135 0
-141 -142 135 0
141 142 -137 135 0
-141 142 -137 -135 0
-143 137 0
141 -143 135 0
-141 -143 -135 0
141 143 -137 -135 0
-141 143 -137 135 0
-144 137 0
-144 135 0
-144 -141 0
144 141 -137 -135 0
145 -137 141 0
-145 137 141 0
-146 141 0
145 -146 -137 0
-145 -146 137 0
145 146 137 -141 0
-145 146 -137 -141 0
-147 141 0
145 -147 137 0
-145 -147 -137 0
145 147 -137 -141 0
-145 147 137 -141 0
-148 145 0
-148 141 0
-148 -137 0
148 -145 137 -141 0
149 145 -141 0
-149 145 141 0
-150 145 0
149 -150 -141 0
-149 -150 141 0
149 150 -145 141 0
-149 150 -145 -141 0
-151 145 0
149 -151 141 0
-149 -151 -141 0
149 151 -145 -141 0
-149 151 -145 141 0
-152 145 0
-152 141 0
-152 -149 0
152 149 -145 -141 0
153 104 -132 0
153 -104 132 0
-153 104 132 0
-153 -104 -132 0
154 100 -128 0
154 -100 128 0
-154 100 128 0
-154 -100 -128 0
-155 104 0
-155 128 0
-155 132 -100 0
-155 -132 100 0
155 -104 132 100 -128 0
155 -104 -132 -100 -128 0
156 153 -128 0
-156 153 128 0
-157 153 0
156 -157 -128 0
-156 -157 128 0
156 157 -153 128 0
-156 157 -153 -128 0
-158 153 0
156 -158 128 0
-156 -158 -128 0
156 158 -153 -128 0
-156 158 -153 128 0
-159 153 0
-159 128 0
-159 -156 0
159 156 -153 -128 0
160 104 -153 0
160 -104 153 0
-160 104 153 0
-160 -104 -153 0
161 154 -156 0
161 -154 156 0
-161 154 156 0
-161 -154 -156 0
-162 104 0
-162 156 0
-162 153 -154 0
-162 -153 154 0
162 -104 153 154 -156 0
162 -104 -153 -154 -156 0
163 104 -161 0
163 -104 161 0
-163 104 161 0
-163 -104 -161 0
-164 104 0
-164 161 0
164 -104 -161 0
165 -104 163 0
-165 104 163 0
-166 163 0
165 -166 -104 0
-165 -166 104 0
165 166 104 -163 0
-165 166 -104 -163 0
-167 163 0
165 -167 104 0
-165 -167 -104 0
165 167 -104 -163 0
-165 167 104 -163 0
-168 165 0
-168 163 0
-168 -104 0
168 -165 104 -163 0
169 165 -163 0
-169 165 163 0
-170 165 0
169 -170 -163 0
-169 -170 163 0
169 170 -165 163 0
-169 170 -165 -163 0
-171 165 0
169 -171 163 0
-169 -171 -163 0
169 171 -165 -163 0
-169 171 -165 163 0
-172 165 0
-172 163 0
-172 -169 0
172 169 -165 -163 0
173 -165 169 0
-173 165 169 0
-174 169 0
173 -174 -165 0
-173 -174 165 0
173 174 165 -169 0
-173 174 -165 -169 0
-175 169 0
173 -175 165 0
-173 -175 -165 0
173 175 -165 -169 0
-173 175 165 -169 0
-176 173 0
-176 169 0
-176 -165 0
176 -173 165 -169 0
177 173 -169 0
-177 173 169 0
-178 173 0
177 -178 -169 0
-177 -178 169 0
177 178 -173 169 0
-177 178 -173 -169 0
-179 173 0
177 -179 169 0
-177 -179 -169 0
177 179 -173 -169 0
-177 179 -173 169 0
-180 173 0
-180 169 0
-180 -177 0
180 177 -173 -169 0
181 160 -156 0
181 -160 156 0
-181 160 156 0
-181 -160 -156 0
-182 160 0
-182 156 0
182 -160 -156 0
183 -160 181 0
-183 160 181 0
-184 181 0
183 -184 -160 0
-183 -184 160 0
183 184 160 -181 0
-183 184 -160 -181 0
-185 181 0
183 -185 160 0
-183 -185 -160 0
183 185 -160 -181 0
-183 185 160 -181 0
-186 183 0
-186 181 0
-186 -160 0
186 -183 160 -181 0
187 183 -181 0
-187 183 181 0
-188 183 0
187 -188 -181 0
-187 -188 181 0
187 188 -183 181 0
-187 188 -183 -181 0
-189 183 0
187 -189 181 0
-187 -189 -181 0
187 189 -183 -181 0
-187 189 -183 181 0
-190 183 0
-190 181 0
-190 -187 0
190 187 -183 -181 0
191 -183 187 0
-191 183 187 0
-192 187 0
191 -192 -183 0
-191 -192 183 0
191 192 183 -187 0
-191 192 -183 -187 0
-193 187 0
191 -193 183 0
-191 -193 -183 0
191 193 -183 -187 0
-191 193 183 -187 0
-194 191 0
-194 187 0
-194 -183 0
194 -191 183 -187 0
195 191 -187 0
-195 191 187 0
-196 191 0
195 -196 -187 0
-195 -196 187 0
195 196 -191 187 0
-195 196 -191 -187 0
-197 191 0
195 -197 187 0
-195 -197 -187 0
195 197 -191 -187 0
-195 197 -191 187 0
-198 191 0
-198 187 0
-198 -195 0
198 195 -191 -187 0
-145 0
-173 0
-177 0
-191 0
-195 0
